p edge 200 2897
e 1 101
e 1 102
e 1 103
e 1 104
e 1 109
e 1 116
e 1 120
e 1 124
e 1 125
e 1 127
e 1 134
e 1 136
e 1 140
e 1 142
e 1 145
e 1 148
e 1 160
e 1 163
e 1 169
e 1 170
e 1 171
e 1 173
e 1 176
e 1 180
e 1 181
e 1 184
e 1 187
e 1 191
e 2 101
e 2 103
e 2 108
e 2 110
e 2 111
e 2 117
e 2 118
e 2 119
e 2 123
e 2 132
e 2 133
e 2 134
e 2 135
e 2 141
e 2 145
e 2 146
e 2 147
e 2 148
e 2 149
e 2 150
e 2 151
e 2 152
e 2 154
e 2 156
e 2 157
e 2 158
e 2 159
e 2 165
e 2 167
e 2 169
e 2 170
e 2 175
e 2 176
e 2 181
e 2 183
e 2 185
e 2 187
e 2 192
e 3 104
e 3 111
e 3 114
e 3 115
e 3 119
e 3 120
e 3 121
e 3 123
e 3 124
e 3 126
e 3 127
e 3 128
e 3 129
e 3 131
e 3 132
e 3 136
e 3 138
e 3 140
e 3 141
e 3 142
e 3 148
e 3 149
e 3 152
e 3 153
e 3 154
e 3 161
e 3 162
e 3 169
e 3 174
e 3 178
e 3 181
e 3 182
e 3 189
e 4 104
e 4 108
e 4 109
e 4 114
e 4 115
e 4 118
e 4 124
e 4 125
e 4 127
e 4 136
e 4 139
e 4 140
e 4 142
e 4 143
e 4 144
e 4 148
e 4 152
e 4 153
e 4 160
e 4 166
e 4 169
e 4 171
e 4 175
e 4 178
e 4 180
e 4 187
e 4 188
e 4 190
e 4 191
e 4 192
e 4 194
e 4 199
e 4 200
e 5 107
e 5 108
e 5 110
e 5 114
e 5 115
e 5 118
e 5 119
e 5 121
e 5 126
e 5 130
e 5 132
e 5 135
e 5 140
e 5 141
e 5 142
e 5 143
e 5 147
e 5 149
e 5 150
e 5 151
e 5 152
e 5 159
e 5 164
e 5 170
e 5 176
e 5 177
e 5 178
e 5 180
e 5 189
e 5 191
e 6 101
e 6 104
e 6 106
e 6 107
e 6 110
e 6 117
e 6 118
e 6 120
e 6 124
e 6 127
e 6 128
e 6 138
e 6 143
e 6 146
e 6 147
e 6 151
e 6 154
e 6 155
e 6 158
e 6 159
e 6 166
e 6 168
e 6 170
e 6 175
e 6 178
e 6 182
e 6 185
e 6 189
e 6 190
e 6 195
e 6 198
e 6 199
e 7 102
e 7 103
e 7 104
e 7 106
e 7 108
e 7 110
e 7 112
e 7 121
e 7 123
e 7 127
e 7 129
e 7 130
e 7 132
e 7 137
e 7 140
e 7 142
e 7 143
e 7 147
e 7 150
e 7 159
e 7 160
e 7 161
e 7 164
e 7 165
e 7 167
e 7 171
e 7 174
e 7 175
e 7 176
e 7 180
e 7 182
e 7 186
e 7 189
e 7 192
e 7 193
e 7 197
e 7 198
e 8 103
e 8 106
e 8 107
e 8 112
e 8 114
e 8 119
e 8 120
e 8 122
e 8 123
e 8 127
e 8 129
e 8 133
e 8 136
e 8 140
e 8 141
e 8 144
e 8 150
e 8 151
e 8 152
e 8 153
e 8 155
e 8 156
e 8 157
e 8 162
e 8 166
e 8 171
e 8 175
e 8 182
e 8 195
e 8 198
e 8 199
e 9 102
e 9 103
e 9 107
e 9 120
e 9 121
e 9 122
e 9 131
e 9 134
e 9 138
e 9 143
e 9 144
e 9 145
e 9 149
e 9 150
e 9 154
e 9 159
e 9 161
e 9 163
e 9 164
e 9 166
e 9 172
e 9 176
e 9 179
e 9 180
e 9 182
e 9 188
e 9 191
e 9 192
e 9 193
e 9 194
e 9 198
e 9 199
e 9 200
e 10 108
e 10 112
e 10 119
e 10 127
e 10 135
e 10 136
e 10 137
e 10 148
e 10 151
e 10 152
e 10 154
e 10 158
e 10 159
e 10 161
e 10 163
e 10 164
e 10 169
e 10 170
e 10 180
e 10 181
e 10 182
e 10 183
e 10 184
e 10 188
e 10 190
e 10 192
e 10 194
e 10 195
e 10 196
e 10 198
e 11 102
e 11 105
e 11 114
e 11 115
e 11 121
e 11 124
e 11 127
e 11 128
e 11 132
e 11 134
e 11 138
e 11 141
e 11 147
e 11 148
e 11 149
e 11 151
e 11 152
e 11 154
e 11 157
e 11 161
e 11 164
e 11 178
e 11 186
e 11 188
e 11 192
e 11 193
e 11 196
e 12 107
e 12 116
e 12 119
e 12 120
e 12 135
e 12 138
e 12 139
e 12 142
e 12 144
e 12 150
e 12 151
e 12 153
e 12 160
e 12 161
e 12 163
e 12 167
e 12 175
e 12 176
e 12 177
e 12 185
e 12 190
e 12 191
e 12 192
e 12 194
e 12 197
e 12 199
e 13 101
e 13 112
e 13 113
e 13 117
e 13 119
e 13 127
e 13 131
e 13 141
e 13 149
e 13 161
e 13 164
e 13 166
e 13 168
e 13 174
e 13 175
e 13 184
e 13 186
e 13 187
e 13 188
e 13 189
e 13 194
e 13 196
e 13 197
e 13 198
e 13 199
e 14 107
e 14 108
e 14 110
e 14 111
e 14 115
e 14 118
e 14 122
e 14 124
e 14 126
e 14 127
e 14 132
e 14 137
e 14 138
e 14 139
e 14 140
e 14 145
e 14 153
e 14 154
e 14 156
e 14 159
e 14 161
e 14 166
e 14 175
e 14 176
e 14 186
e 14 189
e 14 190
e 14 191
e 14 192
e 14 195
e 14 198
e 14 200
e 15 102
e 15 103
e 15 104
e 15 114
e 15 118
e 15 123
e 15 133
e 15 138
e 15 140
e 15 144
e 15 146
e 15 149
e 15 150
e 15 152
e 15 154
e 15 160
e 15 166
e 15 169
e 15 170
e 15 172
e 15 185
e 15 186
e 15 187
e 15 193
e 15 197
e 15 199
e 15 200
e 16 104
e 16 109
e 16 111
e 16 113
e 16 114
e 16 116
e 16 117
e 16 119
e 16 122
e 16 125
e 16 129
e 16 130
e 16 134
e 16 139
e 16 142
e 16 143
e 16 149
e 16 150
e 16 151
e 16 153
e 16 158
e 16 162
e 16 170
e 16 171
e 16 173
e 16 180
e 16 184
e 16 188
e 16 193
e 16 197
e 16 200
e 17 104
e 17 109
e 17 110
e 17 115
e 17 116
e 17 117
e 17 119
e 17 123
e 17 124
e 17 126
e 17 127
e 17 130
e 17 139
e 17 141
e 17 142
e 17 143
e 17 145
e 17 154
e 17 161
e 17 163
e 17 166
e 17 167
e 17 175
e 17 185
e 17 188
e 17 194
e 17 197
e 18 101
e 18 103
e 18 108
e 18 110
e 18 111
e 18 116
e 18 121
e 18 126
e 18 128
e 18 131
e 18 132
e 18 133
e 18 138
e 18 145
e 18 148
e 18 149
e 18 159
e 18 166
e 18 171
e 18 175
e 18 178
e 18 179
e 18 180
e 18 186
e 18 187
e 18 189
e 18 196
e 18 200
e 19 107
e 19 110
e 19 111
e 19 113
e 19 117
e 19 120
e 19 121
e 19 123
e 19 125
e 19 127
e 19 131
e 19 133
e 19 138
e 19 142
e 19 143
e 19 148
e 19 157
e 19 158
e 19 159
e 19 160
e 19 162
e 19 165
e 19 167
e 19 169
e 19 170
e 19 175
e 19 179
e 19 180
e 19 181
e 19 182
e 19 190
e 19 198
e 20 101
e 20 103
e 20 105
e 20 109
e 20 111
e 20 119
e 20 122
e 20 123
e 20 128
e 20 130
e 20 133
e 20 135
e 20 136
e 20 137
e 20 138
e 20 146
e 20 149
e 20 150
e 20 153
e 20 160
e 20 164
e 20 170
e 20 171
e 20 173
e 20 174
e 20 178
e 20 182
e 20 200
e 21 101
e 21 102
e 21 105
e 21 110
e 21 116
e 21 119
e 21 123
e 21 135
e 21 136
e 21 139
e 21 143
e 21 144
e 21 147
e 21 151
e 21 157
e 21 161
e 21 163
e 21 166
e 21 168
e 21 170
e 21 175
e 21 184
e 21 187
e 21 193
e 21 196
e 21 198
e 22 107
e 22 111
e 22 112
e 22 120
e 22 122
e 22 123
e 22 124
e 22 126
e 22 134
e 22 139
e 22 140
e 22 141
e 22 145
e 22 147
e 22 149
e 22 154
e 22 163
e 22 167
e 22 168
e 22 171
e 22 173
e 22 178
e 22 185
e 22 186
e 22 187
e 22 189
e 22 191
e 22 194
e 22 195
e 22 197
e 22 199
e 23 101
e 23 103
e 23 108
e 23 112
e 23 115
e 23 122
e 23 123
e 23 125
e 23 130
e 23 131
e 23 138
e 23 139
e 23 140
e 23 142
e 23 146
e 23 148
e 23 154
e 23 157
e 23 165
e 23 168
e 23 169
e 23 170
e 23 172
e 23 173
e 23 176
e 23 183
e 23 196
e 23 197
e 23 199
e 24 103
e 24 106
e 24 111
e 24 112
e 24 115
e 24 116
e 24 134
e 24 135
e 24 148
e 24 153
e 24 154
e 24 156
e 24 163
e 24 176
e 24 178
e 24 195
e 25 104
e 25 109
e 25 111
e 25 116
e 25 119
e 25 123
e 25 137
e 25 139
e 25 141
e 25 148
e 25 150
e 25 160
e 25 167
e 25 169
e 25 170
e 25 177
e 25 182
e 25 184
e 25 186
e 25 192
e 25 193
e 25 197
e 26 102
e 26 104
e 26 105
e 26 110
e 26 111
e 26 115
e 26 118
e 26 119
e 26 121
e 26 132
e 26 134
e 26 141
e 26 143
e 26 145
e 26 146
e 26 149
e 26 150
e 26 152
e 26 157
e 26 158
e 26 161
e 26 164
e 26 168
e 26 170
e 26 174
e 26 182
e 26 184
e 26 187
e 26 190
e 26 193
e 26 194
e 26 196
e 27 102
e 27 110
e 27 111
e 27 116
e 27 118
e 27 120
e 27 122
e 27 127
e 27 128
e 27 133
e 27 134
e 27 135
e 27 136
e 27 139
e 27 141
e 27 146
e 27 150
e 27 153
e 27 157
e 27 158
e 27 159
e 27 160
e 27 162
e 27 177
e 27 179
e 27 181
e 27 184
e 27 187
e 27 189
e 27 191
e 27 192
e 27 196
e 27 200
e 28 101
e 28 107
e 28 110
e 28 117
e 28 119
e 28 120
e 28 122
e 28 124
e 28 126
e 28 130
e 28 133
e 28 142
e 28 145
e 28 146
e 28 153
e 28 159
e 28 163
e 28 169
e 28 177
e 28 185
e 28 188
e 28 189
e 28 191
e 28 192
e 28 193
e 28 194
e 28 198
e 28 200
e 29 101
e 29 102
e 29 104
e 29 105
e 29 111
e 29 114
e 29 116
e 29 117
e 29 123
e 29 124
e 29 125
e 29 128
e 29 130
e 29 131
e 29 132
e 29 133
e 29 135
e 29 143
e 29 146
e 29 153
e 29 154
e 29 160
e 29 164
e 29 167
e 29 171
e 29 173
e 29 177
e 29 190
e 29 193
e 30 104
e 30 105
e 30 116
e 30 118
e 30 120
e 30 125
e 30 134
e 30 139
e 30 146
e 30 149
e 30 150
e 30 153
e 30 156
e 30 163
e 30 165
e 30 166
e 30 170
e 30 178
e 30 180
e 30 181
e 30 183
e 30 184
e 30 185
e 30 189
e 31 105
e 31 107
e 31 112
e 31 118
e 31 121
e 31 122
e 31 134
e 31 136
e 31 139
e 31 141
e 31 151
e 31 152
e 31 164
e 31 166
e 31 172
e 31 173
e 31 174
e 31 175
e 31 178
e 31 183
e 31 189
e 31 192
e 31 197
e 32 101
e 32 104
e 32 109
e 32 111
e 32 113
e 32 121
e 32 124
e 32 127
e 32 128
e 32 131
e 32 133
e 32 135
e 32 138
e 32 140
e 32 148
e 32 151
e 32 153
e 32 156
e 32 157
e 32 158
e 32 160
e 32 162
e 32 166
e 32 167
e 32 169
e 32 178
e 32 183
e 32 184
e 32 185
e 32 190
e 32 199
e 33 107
e 33 108
e 33 116
e 33 118
e 33 119
e 33 120
e 33 130
e 33 132
e 33 133
e 33 135
e 33 138
e 33 141
e 33 147
e 33 149
e 33 153
e 33 156
e 33 159
e 33 163
e 33 164
e 33 168
e 33 169
e 33 170
e 33 172
e 33 179
e 33 181
e 33 182
e 33 189
e 33 192
e 33 195
e 34 109
e 34 114
e 34 119
e 34 120
e 34 123
e 34 124
e 34 127
e 34 128
e 34 133
e 34 134
e 34 135
e 34 138
e 34 142
e 34 150
e 34 152
e 34 154
e 34 155
e 34 156
e 34 157
e 34 158
e 34 160
e 34 165
e 34 169
e 34 172
e 34 173
e 34 183
e 34 188
e 34 189
e 34 190
e 34 194
e 34 199
e 34 200
e 35 104
e 35 112
e 35 114
e 35 117
e 35 125
e 35 128
e 35 129
e 35 130
e 35 134
e 35 137
e 35 145
e 35 150
e 35 156
e 35 159
e 35 160
e 35 161
e 35 164
e 35 168
e 35 174
e 35 178
e 35 181
e 35 192
e 35 194
e 36 101
e 36 103
e 36 104
e 36 109
e 36 113
e 36 127
e 36 131
e 36 132
e 36 143
e 36 148
e 36 149
e 36 150
e 36 153
e 36 155
e 36 158
e 36 162
e 36 166
e 36 169
e 36 171
e 36 173
e 36 174
e 36 187
e 36 195
e 37 104
e 37 106
e 37 108
e 37 109
e 37 111
e 37 117
e 37 122
e 37 124
e 37 125
e 37 130
e 37 137
e 37 139
e 37 153
e 37 157
e 37 164
e 37 167
e 37 172
e 37 177
e 37 178
e 37 179
e 37 181
e 37 185
e 37 186
e 37 188
e 37 191
e 37 193
e 37 196
e 37 197
e 37 198
e 38 102
e 38 113
e 38 116
e 38 119
e 38 121
e 38 123
e 38 127
e 38 132
e 38 134
e 38 136
e 38 137
e 38 140
e 38 141
e 38 145
e 38 153
e 38 154
e 38 156
e 38 158
e 38 165
e 38 166
e 38 168
e 38 172
e 38 173
e 38 176
e 38 182
e 38 192
e 38 198
e 39 101
e 39 107
e 39 109
e 39 118
e 39 119
e 39 121
e 39 122
e 39 125
e 39 127
e 39 137
e 39 140
e 39 143
e 39 152
e 39 154
e 39 156
e 39 164
e 39 165
e 39 171
e 39 172
e 39 175
e 39 176
e 39 182
e 39 183
e 39 185
e 39 188
e 39 189
e 39 192
e 39 196
e 39 199
e 40 101
e 40 108
e 40 110
e 40 118
e 40 119
e 40 121
e 40 124
e 40 128
e 40 133
e 40 137
e 40 138
e 40 139
e 40 143
e 40 148
e 40 149
e 40 150
e 40 152
e 40 159
e 40 163
e 40 164
e 40 172
e 40 174
e 40 179
e 40 182
e 40 186
e 40 192
e 40 194
e 40 195
e 40 196
e 40 199
e 41 106
e 41 108
e 41 110
e 41 120
e 41 123
e 41 125
e 41 132
e 41 135
e 41 137
e 41 138
e 41 143
e 41 144
e 41 146
e 41 160
e 41 161
e 41 162
e 41 163
e 41 166
e 41 170
e 41 172
e 41 174
e 41 178
e 41 186
e 41 187
e 41 189
e 41 193
e 41 196
e 41 200
e 42 102
e 42 110
e 42 111
e 42 114
e 42 115
e 42 116
e 42 118
e 42 127
e 42 128
e 42 129
e 42 133
e 42 137
e 42 138
e 42 141
e 42 142
e 42 143
e 42 145
e 42 146
e 42 150
e 42 152
e 42 154
e 42 160
e 42 165
e 42 167
e 42 169
e 42 170
e 42 174
e 42 178
e 42 183
e 42 190
e 42 191
e 42 196
e 43 105
e 43 116
e 43 117
e 43 120
e 43 123
e 43 125
e 43 128
e 43 131
e 43 134
e 43 138
e 43 142
e 43 149
e 43 157
e 43 163
e 43 164
e 43 170
e 43 171
e 43 173
e 43 175
e 43 176
e 43 178
e 43 179
e 43 181
e 43 182
e 43 183
e 43 185
e 43 190
e 43 194
e 43 195
e 43 196
e 43 198
e 44 101
e 44 106
e 44 108
e 44 112
e 44 123
e 44 125
e 44 126
e 44 127
e 44 128
e 44 138
e 44 139
e 44 140
e 44 150
e 44 152
e 44 160
e 44 162
e 44 163
e 44 167
e 44 171
e 44 173
e 44 182
e 44 195
e 45 102
e 45 105
e 45 106
e 45 109
e 45 110
e 45 114
e 45 115
e 45 116
e 45 121
e 45 122
e 45 126
e 45 128
e 45 131
e 45 132
e 45 135
e 45 136
e 45 138
e 45 139
e 45 140
e 45 145
e 45 150
e 45 152
e 45 153
e 45 161
e 45 162
e 45 164
e 45 165
e 45 168
e 45 171
e 45 181
e 45 183
e 45 198
e 45 199
e 45 200
e 46 107
e 46 111
e 46 112
e 46 117
e 46 121
e 46 126
e 46 132
e 46 135
e 46 137
e 46 138
e 46 142
e 46 143
e 46 146
e 46 148
e 46 154
e 46 156
e 46 157
e 46 158
e 46 160
e 46 163
e 46 164
e 46 166
e 46 168
e 46 173
e 46 187
e 46 190
e 47 113
e 47 114
e 47 117
e 47 119
e 47 121
e 47 123
e 47 125
e 47 128
e 47 131
e 47 137
e 47 138
e 47 139
e 47 145
e 47 146
e 47 155
e 47 161
e 47 163
e 47 172
e 47 173
e 47 175
e 47 176
e 47 178
e 47 180
e 47 184
e 47 191
e 47 193
e 47 194
e 47 197
e 47 200
e 48 108
e 48 109
e 48 112
e 48 119
e 48 130
e 48 135
e 48 136
e 48 146
e 48 152
e 48 153
e 48 154
e 48 158
e 48 161
e 48 164
e 48 170
e 48 174
e 48 177
e 48 180
e 48 182
e 48 185
e 48 187
e 48 189
e 48 191
e 48 197
e 49 108
e 49 109
e 49 114
e 49 119
e 49 125
e 49 127
e 49 129
e 49 130
e 49 134
e 49 138
e 49 141
e 49 152
e 49 153
e 49 154
e 49 159
e 49 163
e 49 164
e 49 167
e 49 175
e 49 186
e 49 188
e 49 189
e 49 195
e 49 197
e 49 200
e 50 109
e 50 111
e 50 123
e 50 124
e 50 125
e 50 129
e 50 130
e 50 139
e 50 143
e 50 144
e 50 149
e 50 153
e 50 154
e 50 158
e 50 164
e 50 168
e 50 173
e 50 174
e 50 175
e 50 178
e 50 181
e 50 185
e 50 190
e 50 191
e 50 192
e 50 194
e 50 197
e 51 103
e 51 105
e 51 108
e 51 118
e 51 120
e 51 130
e 51 135
e 51 139
e 51 140
e 51 141
e 51 144
e 51 147
e 51 153
e 51 157
e 51 158
e 51 163
e 51 165
e 51 171
e 51 177
e 51 178
e 51 182
e 51 187
e 51 188
e 51 192
e 51 194
e 51 198
e 52 106
e 52 107
e 52 108
e 52 112
e 52 114
e 52 115
e 52 127
e 52 135
e 52 137
e 52 139
e 52 142
e 52 147
e 52 148
e 52 149
e 52 151
e 52 153
e 52 154
e 52 155
e 52 157
e 52 160
e 52 163
e 52 165
e 52 166
e 52 169
e 52 170
e 52 172
e 52 173
e 52 178
e 52 182
e 52 185
e 52 191
e 52 193
e 52 194
e 52 195
e 52 196
e 53 101
e 53 103
e 53 106
e 53 111
e 53 113
e 53 116
e 53 121
e 53 123
e 53 126
e 53 128
e 53 139
e 53 142
e 53 144
e 53 149
e 53 154
e 53 155
e 53 158
e 53 171
e 53 175
e 53 176
e 53 181
e 53 183
e 53 188
e 53 189
e 53 192
e 53 193
e 53 197
e 53 200
e 54 104
e 54 109
e 54 111
e 54 114
e 54 115
e 54 124
e 54 127
e 54 133
e 54 134
e 54 137
e 54 141
e 54 144
e 54 151
e 54 155
e 54 156
e 54 159
e 54 161
e 54 165
e 54 168
e 54 180
e 54 181
e 54 184
e 54 185
e 54 188
e 54 190
e 55 106
e 55 107
e 55 110
e 55 116
e 55 117
e 55 124
e 55 125
e 55 128
e 55 131
e 55 132
e 55 135
e 55 136
e 55 138
e 55 149
e 55 158
e 55 159
e 55 160
e 55 161
e 55 162
e 55 164
e 55 166
e 55 171
e 55 173
e 55 174
e 55 177
e 55 191
e 55 194
e 55 195
e 55 196
e 55 197
e 55 198
e 55 200
e 56 106
e 56 107
e 56 110
e 56 121
e 56 128
e 56 130
e 56 131
e 56 137
e 56 144
e 56 155
e 56 156
e 56 158
e 56 162
e 56 166
e 56 167
e 56 170
e 56 171
e 56 179
e 56 183
e 56 184
e 56 191
e 56 193
e 56 195
e 57 102
e 57 108
e 57 111
e 57 112
e 57 114
e 57 116
e 57 122
e 57 124
e 57 125
e 57 126
e 57 137
e 57 138
e 57 142
e 57 146
e 57 152
e 57 160
e 57 163
e 57 167
e 57 168
e 57 169
e 57 170
e 57 173
e 57 175
e 57 176
e 57 178
e 57 179
e 57 180
e 57 184
e 57 188
e 57 189
e 57 191
e 57 194
e 57 197
e 57 198
e 58 101
e 58 104
e 58 106
e 58 107
e 58 111
e 58 115
e 58 121
e 58 123
e 58 125
e 58 127
e 58 129
e 58 130
e 58 131
e 58 138
e 58 148
e 58 150
e 58 152
e 58 157
e 58 160
e 58 161
e 58 162
e 58 163
e 58 168
e 58 171
e 58 172
e 58 176
e 58 179
e 58 184
e 58 187
e 58 194
e 58 197
e 58 199
e 59 106
e 59 107
e 59 110
e 59 112
e 59 115
e 59 116
e 59 126
e 59 127
e 59 128
e 59 130
e 59 133
e 59 134
e 59 137
e 59 144
e 59 150
e 59 155
e 59 157
e 59 161
e 59 166
e 59 168
e 59 174
e 59 176
e 59 177
e 59 179
e 59 180
e 59 181
e 59 184
e 59 188
e 59 189
e 59 194
e 59 196
e 59 197
e 60 110
e 60 111
e 60 114
e 60 115
e 60 120
e 60 125
e 60 126
e 60 129
e 60 131
e 60 134
e 60 139
e 60 149
e 60 150
e 60 157
e 60 158
e 60 162
e 60 163
e 60 165
e 60 170
e 60 172
e 60 176
e 60 180
e 60 187
e 60 196
e 61 105
e 61 113
e 61 114
e 61 115
e 61 118
e 61 128
e 61 138
e 61 140
e 61 142
e 61 143
e 61 144
e 61 145
e 61 150
e 61 152
e 61 157
e 61 159
e 61 167
e 61 168
e 61 176
e 61 180
e 61 182
e 61 184
e 61 186
e 61 187
e 61 189
e 61 191
e 62 101
e 62 103
e 62 110
e 62 111
e 62 112
e 62 115
e 62 116
e 62 120
e 62 124
e 62 126
e 62 130
e 62 134
e 62 136
e 62 137
e 62 139
e 62 146
e 62 148
e 62 150
e 62 152
e 62 154
e 62 155
e 62 163
e 62 166
e 62 167
e 62 168
e 62 169
e 62 170
e 62 177
e 62 180
e 62 181
e 62 182
e 62 184
e 62 187
e 62 192
e 62 199
e 62 200
e 63 103
e 63 108
e 63 112
e 63 113
e 63 117
e 63 121
e 63 122
e 63 125
e 63 133
e 63 136
e 63 138
e 63 141
e 63 142
e 63 143
e 63 147
e 63 150
e 63 152
e 63 161
e 63 163
e 63 164
e 63 167
e 63 168
e 63 170
e 63 171
e 63 173
e 63 180
e 63 182
e 63 184
e 63 185
e 63 186
e 64 103
e 64 109
e 64 113
e 64 116
e 64 121
e 64 123
e 64 124
e 64 129
e 64 135
e 64 138
e 64 140
e 64 141
e 64 146
e 64 148
e 64 149
e 64 150
e 64 151
e 64 153
e 64 154
e 64 155
e 64 156
e 64 162
e 64 163
e 64 178
e 64 183
e 64 186
e 64 191
e 64 195
e 64 196
e 65 101
e 65 102
e 65 103
e 65 105
e 65 107
e 65 109
e 65 110
e 65 111
e 65 114
e 65 116
e 65 117
e 65 124
e 65 133
e 65 142
e 65 144
e 65 151
e 65 177
e 65 178
e 65 181
e 65 183
e 65 186
e 65 188
e 65 192
e 65 193
e 65 195
e 65 200
e 66 101
e 66 102
e 66 104
e 66 106
e 66 108
e 66 110
e 66 116
e 66 118
e 66 121
e 66 130
e 66 134
e 66 140
e 66 143
e 66 149
e 66 151
e 66 152
e 66 153
e 66 160
e 66 167
e 66 172
e 66 173
e 66 174
e 66 176
e 66 184
e 66 185
e 66 191
e 66 192
e 66 193
e 66 194
e 66 196
e 66 200
e 67 102
e 67 105
e 67 107
e 67 111
e 67 112
e 67 114
e 67 115
e 67 116
e 67 117
e 67 119
e 67 120
e 67 121
e 67 130
e 67 131
e 67 141
e 67 146
e 67 152
e 67 154
e 67 155
e 67 160
e 67 163
e 67 165
e 67 166
e 67 168
e 67 169
e 67 171
e 67 180
e 67 186
e 67 187
e 67 199
e 68 101
e 68 116
e 68 117
e 68 118
e 68 120
e 68 121
e 68 122
e 68 123
e 68 126
e 68 131
e 68 136
e 68 137
e 68 143
e 68 144
e 68 146
e 68 148
e 68 149
e 68 150
e 68 152
e 68 154
e 68 155
e 68 160
e 68 163
e 68 166
e 68 168
e 68 174
e 68 178
e 68 185
e 68 191
e 68 196
e 68 197
e 68 200
e 69 104
e 69 108
e 69 111
e 69 117
e 69 123
e 69 128
e 69 131
e 69 133
e 69 137
e 69 139
e 69 145
e 69 148
e 69 154
e 69 155
e 69 156
e 69 159
e 69 160
e 69 163
e 69 164
e 69 166
e 69 168
e 69 171
e 69 173
e 69 178
e 69 179
e 69 184
e 69 191
e 69 192
e 69 193
e 69 194
e 69 195
e 70 108
e 70 109
e 70 110
e 70 111
e 70 118
e 70 119
e 70 120
e 70 122
e 70 125
e 70 133
e 70 135
e 70 139
e 70 142
e 70 149
e 70 151
e 70 155
e 70 156
e 70 161
e 70 163
e 70 169
e 70 171
e 70 175
e 70 188
e 70 191
e 70 195
e 70 196
e 70 197
e 70 198
e 71 103
e 71 106
e 71 112
e 71 113
e 71 114
e 71 115
e 71 117
e 71 118
e 71 120
e 71 123
e 71 124
e 71 125
e 71 127
e 71 133
e 71 142
e 71 155
e 71 156
e 71 158
e 71 160
e 71 163
e 71 166
e 71 167
e 71 169
e 71 174
e 71 175
e 71 179
e 71 181
e 71 184
e 71 188
e 71 192
e 71 193
e 71 195
e 72 101
e 72 108
e 72 115
e 72 119
e 72 125
e 72 131
e 72 135
e 72 141
e 72 147
e 72 150
e 72 151
e 72 152
e 72 153
e 72 162
e 72 167
e 72 170
e 72 179
e 72 181
e 72 182
e 72 184
e 72 189
e 72 193
e 72 195
e 72 196
e 73 104
e 73 105
e 73 108
e 73 109
e 73 115
e 73 116
e 73 120
e 73 125
e 73 127
e 73 128
e 73 129
e 73 131
e 73 142
e 73 143
e 73 146
e 73 147
e 73 150
e 73 153
e 73 155
e 73 159
e 73 162
e 73 164
e 73 173
e 73 176
e 73 182
e 73 183
e 73 184
e 73 188
e 73 190
e 73 191
e 73 195
e 73 196
e 73 200
e 74 103
e 74 104
e 74 105
e 74 107
e 74 110
e 74 113
e 74 114
e 74 115
e 74 117
e 74 118
e 74 121
e 74 125
e 74 127
e 74 128
e 74 132
e 74 134
e 74 136
e 74 137
e 74 140
e 74 158
e 74 161
e 74 162
e 74 163
e 74 165
e 74 167
e 74 174
e 74 178
e 74 179
e 74 180
e 74 182
e 74 183
e 74 184
e 74 185
e 74 189
e 74 190
e 74 193
e 74 198
e 75 101
e 75 104
e 75 112
e 75 113
e 75 118
e 75 123
e 75 126
e 75 131
e 75 140
e 75 145
e 75 146
e 75 147
e 75 151
e 75 158
e 75 162
e 75 169
e 75 171
e 75 173
e 75 174
e 75 177
e 75 179
e 75 183
e 75 185
e 75 187
e 75 188
e 75 197
e 76 108
e 76 111
e 76 112
e 76 113
e 76 114
e 76 116
e 76 117
e 76 123
e 76 124
e 76 133
e 76 141
e 76 143
e 76 146
e 76 148
e 76 149
e 76 159
e 76 167
e 76 169
e 76 172
e 76 173
e 76 174
e 76 177
e 76 178
e 76 180
e 76 185
e 76 188
e 76 191
e 76 193
e 76 199
e 77 101
e 77 104
e 77 106
e 77 114
e 77 115
e 77 123
e 77 126
e 77 130
e 77 134
e 77 147
e 77 150
e 77 153
e 77 155
e 77 159
e 77 163
e 77 172
e 77 175
e 77 176
e 77 178
e 77 181
e 77 183
e 77 190
e 77 193
e 77 194
e 77 195
e 77 198
e 78 107
e 78 108
e 78 112
e 78 113
e 78 115
e 78 121
e 78 124
e 78 125
e 78 130
e 78 132
e 78 137
e 78 142
e 78 152
e 78 154
e 78 157
e 78 170
e 78 172
e 78 174
e 78 179
e 78 183
e 78 188
e 78 192
e 78 196
e 79 104
e 79 107
e 79 108
e 79 109
e 79 116
e 79 119
e 79 120
e 79 121
e 79 126
e 79 127
e 79 128
e 79 129
e 79 130
e 79 133
e 79 141
e 79 148
e 79 149
e 79 158
e 79 164
e 79 168
e 79 170
e 79 172
e 79 174
e 79 176
e 79 180
e 79 184
e 79 185
e 79 186
e 79 188
e 79 192
e 79 196
e 79 198
e 79 199
e 80 105
e 80 120
e 80 121
e 80 125
e 80 126
e 80 129
e 80 133
e 80 134
e 80 136
e 80 139
e 80 148
e 80 149
e 80 151
e 80 153
e 80 154
e 80 156
e 80 158
e 80 161
e 80 163
e 80 164
e 80 169
e 80 171
e 80 172
e 80 175
e 80 177
e 80 184
e 80 185
e 80 192
e 80 193
e 80 197
e 80 198
e 80 199
e 81 111
e 81 116
e 81 120
e 81 121
e 81 124
e 81 128
e 81 130
e 81 131
e 81 136
e 81 140
e 81 141
e 81 144
e 81 145
e 81 148
e 81 149
e 81 151
e 81 153
e 81 155
e 81 157
e 81 160
e 81 161
e 81 164
e 81 168
e 81 170
e 81 171
e 81 172
e 81 183
e 81 186
e 81 189
e 81 197
e 81 198
e 81 199
e 82 105
e 82 110
e 82 114
e 82 115
e 82 118
e 82 122
e 82 123
e 82 124
e 82 127
e 82 128
e 82 129
e 82 133
e 82 137
e 82 140
e 82 147
e 82 149
e 82 150
e 82 151
e 82 153
e 82 155
e 82 156
e 82 157
e 82 158
e 82 170
e 82 172
e 82 174
e 82 176
e 82 178
e 82 181
e 82 183
e 82 190
e 83 106
e 83 112
e 83 120
e 83 129
e 83 138
e 83 139
e 83 142
e 83 143
e 83 145
e 83 146
e 83 147
e 83 148
e 83 153
e 83 165
e 83 172
e 83 174
e 83 175
e 83 185
e 83 186
e 83 189
e 83 196
e 84 101
e 84 102
e 84 105
e 84 107
e 84 110
e 84 115
e 84 121
e 84 130
e 84 132
e 84 139
e 84 141
e 84 145
e 84 150
e 84 162
e 84 163
e 84 164
e 84 165
e 84 167
e 84 168
e 84 172
e 84 180
e 84 181
e 84 187
e 84 189
e 84 192
e 84 195
e 84 198
e 84 199
e 85 103
e 85 105
e 85 109
e 85 112
e 85 116
e 85 118
e 85 120
e 85 127
e 85 128
e 85 131
e 85 136
e 85 137
e 85 140
e 85 142
e 85 144
e 85 147
e 85 150
e 85 152
e 85 154
e 85 155
e 85 156
e 85 161
e 85 162
e 85 174
e 85 178
e 85 180
e 85 182
e 85 186
e 85 188
e 85 191
e 85 192
e 85 193
e 85 196
e 85 199
e 86 101
e 86 105
e 86 108
e 86 109
e 86 112
e 86 114
e 86 115
e 86 116
e 86 118
e 86 119
e 86 123
e 86 124
e 86 125
e 86 127
e 86 130
e 86 131
e 86 132
e 86 138
e 86 143
e 86 152
e 86 155
e 86 156
e 86 158
e 86 162
e 86 163
e 86 168
e 86 169
e 86 170
e 86 171
e 86 174
e 86 176
e 86 178
e 86 187
e 86 188
e 86 195
e 86 198
e 87 107
e 87 109
e 87 111
e 87 115
e 87 119
e 87 123
e 87 126
e 87 128
e 87 132
e 87 133
e 87 134
e 87 137
e 87 138
e 87 140
e 87 141
e 87 145
e 87 149
e 87 151
e 87 152
e 87 156
e 87 159
e 87 162
e 87 167
e 87 176
e 87 179
e 87 180
e 87 181
e 87 183
e 87 186
e 87 190
e 87 191
e 87 192
e 87 196
e 88 103
e 88 105
e 88 110
e 88 112
e 88 113
e 88 114
e 88 116
e 88 118
e 88 120
e 88 125
e 88 128
e 88 131
e 88 138
e 88 139
e 88 147
e 88 151
e 88 152
e 88 154
e 88 156
e 88 161
e 88 165
e 88 169
e 88 170
e 88 173
e 88 176
e 88 181
e 88 182
e 88 184
e 88 192
e 88 193
e 88 199
e 89 106
e 89 119
e 89 123
e 89 126
e 89 133
e 89 137
e 89 139
e 89 142
e 89 143
e 89 145
e 89 148
e 89 153
e 89 155
e 89 157
e 89 162
e 89 166
e 89 168
e 89 169
e 89 171
e 89 176
e 89 179
e 89 184
e 89 191
e 90 104
e 90 106
e 90 108
e 90 109
e 90 112
e 90 114
e 90 116
e 90 118
e 90 121
e 90 123
e 90 128
e 90 133
e 90 136
e 90 141
e 90 162
e 90 165
e 90 166
e 90 170
e 90 171
e 90 173
e 90 174
e 90 176
e 90 177
e 90 179
e 90 187
e 90 191
e 90 195
e 90 199
e 91 101
e 91 103
e 91 110
e 91 112
e 91 121
e 91 128
e 91 131
e 91 139
e 91 145
e 91 146
e 91 153
e 91 155
e 91 161
e 91 163
e 91 165
e 91 171
e 91 175
e 91 176
e 91 177
e 91 186
e 91 187
e 91 191
e 91 193
e 91 197
e 92 103
e 92 104
e 92 111
e 92 117
e 92 122
e 92 123
e 92 125
e 92 126
e 92 128
e 92 130
e 92 133
e 92 141
e 92 142
e 92 144
e 92 145
e 92 150
e 92 155
e 92 158
e 92 160
e 92 161
e 92 170
e 92 172
e 92 175
e 92 176
e 92 178
e 92 179
e 92 181
e 92 182
e 92 184
e 92 187
e 92 188
e 92 189
e 92 192
e 92 194
e 92 198
e 93 101
e 93 102
e 93 103
e 93 104
e 93 105
e 93 107
e 93 114
e 93 117
e 93 119
e 93 121
e 93 122
e 93 123
e 93 127
e 93 129
e 93 134
e 93 138
e 93 139
e 93 142
e 93 144
e 93 147
e 93 150
e 93 152
e 93 153
e 93 168
e 93 169
e 93 170
e 93 172
e 93 176
e 93 177
e 93 178
e 93 182
e 93 186
e 93 187
e 93 189
e 93 194
e 93 197
e 94 106
e 94 107
e 94 116
e 94 121
e 94 122
e 94 123
e 94 128
e 94 131
e 94 138
e 94 139
e 94 140
e 94 144
e 94 148
e 94 156
e 94 162
e 94 163
e 94 165
e 94 169
e 94 171
e 94 172
e 94 173
e 94 181
e 94 182
e 94 185
e 94 186
e 94 192
e 94 195
e 94 198
e 95 103
e 95 106
e 95 119
e 95 123
e 95 127
e 95 135
e 95 136
e 95 143
e 95 155
e 95 158
e 95 160
e 95 164
e 95 170
e 95 185
e 95 195
e 95 197
e 95 198
e 95 199
e 96 103
e 96 109
e 96 119
e 96 122
e 96 126
e 96 128
e 96 132
e 96 135
e 96 139
e 96 140
e 96 142
e 96 143
e 96 144
e 96 148
e 96 152
e 96 160
e 96 164
e 96 166
e 96 175
e 96 176
e 96 182
e 96 184
e 96 189
e 96 192
e 96 196
e 96 198
e 96 199
e 96 200
e 97 101
e 97 107
e 97 108
e 97 113
e 97 114
e 97 118
e 97 120
e 97 122
e 97 123
e 97 130
e 97 133
e 97 134
e 97 137
e 97 139
e 97 140
e 97 148
e 97 149
e 97 160
e 97 166
e 97 168
e 97 171
e 97 172
e 97 178
e 97 179
e 97 182
e 97 189
e 97 191
e 97 192
e 97 197
e 98 104
e 98 105
e 98 111
e 98 112
e 98 113
e 98 118
e 98 119
e 98 122
e 98 125
e 98 129
e 98 132
e 98 136
e 98 138
e 98 142
e 98 145
e 98 147
e 98 150
e 98 156
e 98 157
e 98 158
e 98 165
e 98 168
e 98 169
e 98 170
e 98 171
e 98 176
e 98 177
e 98 178
e 98 181
e 98 182
e 98 184
e 98 187
e 99 105
e 99 107
e 99 108
e 99 109
e 99 110
e 99 112
e 99 117
e 99 132
e 99 137
e 99 142
e 99 147
e 99 148
e 99 155
e 99 159
e 99 160
e 99 161
e 99 167
e 99 170
e 99 171
e 99 177
e 99 179
e 99 180
e 99 183
e 99 186
e 99 192
e 99 193
e 99 197
e 100 106
e 100 107
e 100 109
e 100 111
e 100 112
e 100 117
e 100 118
e 100 121
e 100 125
e 100 128
e 100 129
e 100 133
e 100 140
e 100 141
e 100 142
e 100 143
e 100 145
e 100 149
e 100 150
e 100 151
e 100 152
e 100 164
e 100 176
e 100 180
e 100 183
e 100 198
